
        $ From http://www.csplib.org/Problems/prob009/data/helmut.pdf
        $ Problem number 71
        $ Sequence length : 25
        language ESSENCE' 1.0
        letting sizemaster be 289
        letting sizes be sequence(2,3,5,8,13,14,17,20,21,32,36,41,50,52,60,61,62,68,74,76,83,87,100,102,104)
        